
Gurobi 11.0.3 (linux64) logging started Mon Aug 25 14:12:36 2025

Set parameter LogFile to value "/home/yihong/Coding/OR_SUC/SUC_epstheta_results_bigM100000_thread4/case24_ieee_rts_theta0.1_epsilon0.1_gurobi_seed230000_num_gen100_N_WDR50_load_scaling_factor1_proposed_eps_T16quadra_cost_bc1.01.txt"
Set parameter TimeLimit to value 3600
Gurobi Optimizer version 11.0.3 build v11.0.3rc0 (linux64 - "Ubuntu 20.04.6 LTS")

CPU model: AMD EPYC 7532 32-Core Processor, instruction set [SSE2|AVX|AVX2]
Thread count: 64 physical cores, 128 logical processors, using up to 4 threads

Academic license 2399124 - for non-commercial use only - registered to yi___@ed.ac.uk
Optimize a model with 38156 rows, 19891 columns and 876566 nonzeros
Model fingerprint: 0xeed608a6
Model has 1600 quadratic constraints
Variable types: 18291 continuous, 1600 integer (1600 binary)
Coefficient statistics:
  Matrix range     [3e-04, 2e+03]
  QMatrix range    [2e-03, 8e-03]
  QLMatrix range   [3e-01, 6e+01]
  Objective range  [1e+00, 1e+00]
  Bounds range     [1e+00, 1e+00]
  RHS range        [1e+00, 9e+03]
Presolve removed 31215 rows and 8488 columns
Presolve time: 0.31s
Presolved: 6941 rows, 11403 columns, 39267 nonzeros
Presolved model has 1600 quadratic constraint(s)
Variable types: 9803 continuous, 1600 integer (1600 binary)

Root relaxation: objective 1.777751e+04, 5273 iterations, 0.15 seconds (0.17 work units)

    Nodes    |    Current Node    |     Objective Bounds      |     Work
 Expl Unexpl |  Obj  Depth IntInf | Incumbent    BestBd   Gap | It/Node Time

     0     0 17777.5101    0    -          - 17777.5101      -     -    0s
     0     0 259865.807    0  394          - 259865.807      -     -    1s
     0     0 433405.687    0  365          - 433405.687      -     -    1s
     0     0 433417.233    0  183          - 433417.233      -     -    1s
     0     0 433557.404    0  135          - 433557.404      -     -    1s
     0     0 433565.493    0  135          - 433565.493      -     -    1s
     0     0 433565.493    0  135          - 433565.493      -     -    1s
     0     0 433565.493    0  135          - 433565.493      -     -    1s
     0     2 433565.493    0  135          - 433565.493      -     -    2s
H  135   137                    433984.84371 433592.551  0.09%  27.4    4s
*  135   137              65    433984.84371 433592.551  0.09%  27.4    4s

Cutting planes:
  Gomory: 123
  Implied bound: 327
  MIR: 68
  Flow cover: 106
  RLT: 184

Explored 142 nodes (18023 simplex iterations) in 4.71 seconds (5.67 work units)
Thread count was 4 (of 128 available processors)

Solution count 2: 433985 433985 

Optimal solution found (tolerance 1.00e-03)
Warning: max constraint violation (1.3252e-07) exceeds tolerance
Best objective 4.339848437090e+05, best bound 4.335925506735e+05, gap 0.0904%

Gurobi 11.0.3 (linux64) logging started Mon Aug 25 14:12:42 2025

Set parameter LogFile to value "/home/yihong/Coding/OR_SUC/SUC_epstheta_results_bigM100000_thread4/case24_ieee_rts_theta0.1_epsilon0.1_gurobi_seed230000_num_gen100_N_WDR50_load_scaling_factor1_proposed_eps_T16quadra_cost_bc1.01.txt"
Set parameter TimeLimit to value 3600
Gurobi Optimizer version 11.0.3 build v11.0.3rc0 (linux64 - "Ubuntu 20.04.6 LTS")

CPU model: AMD EPYC 7532 32-Core Processor, instruction set [SSE2|AVX|AVX2]
Thread count: 64 physical cores, 128 logical processors, using up to 4 threads

Academic license 2399124 - for non-commercial use only - registered to yi___@ed.ac.uk
Optimize a model with 38156 rows, 19892 columns and 881475 nonzeros
Model fingerprint: 0x57c40ffe
Model has 1601 quadratic constraints
Variable types: 18292 continuous, 1600 integer (1600 binary)
Coefficient statistics:
  Matrix range     [3e-04, 2e+03]
  QMatrix range    [2e-03, 5e+01]
  QLMatrix range   [3e-01, 6e+01]
  Objective range  [1e+00, 1e+00]
  Bounds range     [1e-01, 1e+00]
  RHS range        [5e-01, 4e+05]
  QRHS range       [5e+00, 5e+00]
Presolve removed 28267 rows and 7012 columns
Presolve time: 0.42s
Presolved: 11491 rows, 14480 columns, 59714 nonzeros
Presolved model has 1600 quadratic constraint(s)
Presolved model has 1 bilinear constraint(s)

Solving non-convex MIQCP

Variable types: 12876 continuous, 1604 integer (1604 binary)

Root relaxation: objective 1.560790e-03, 16136 iterations, 1.80 seconds (1.69 work units)

    Nodes    |    Current Node    |     Objective Bounds      |     Work
 Expl Unexpl |  Obj  Depth IntInf | Incumbent    BestBd   Gap | It/Node Time

     0     0    0.00156    0    9          -    0.00156      -     -    3s
     0     0    0.00156    0   20          -    0.00156      -     -    3s
     0     0    0.00217    0    6          -    0.00217      -     -    3s
     0     0    0.00217    0    6          -    0.00217      -     -    3s
     0     0    0.00217    0    6          -    0.00217      -     -    3s
     0     0    0.00217    0    6          -    0.00217      -     -    3s
     0     0    0.00217    0    6          -    0.00217      -     -    3s
     0     0    0.00276    0    6          -    0.00276      -     -    4s
H    0     0                       0.0787166    0.00276  96.5%     -    5s
H    0     0                       0.0781316    0.00276  96.5%     -    5s
     0     2    0.00276    0    6    0.07813    0.00276  96.5%     -    6s
H  107    68                       0.0349535    0.00276  92.1%  50.3    9s
*  107    68              21       0.0349535    0.00276  92.1%  50.3    9s
H  119    74                       0.0347599    0.00276  92.1%  58.3   10s
   126    74    0.03435   23    -    0.03476    0.00276  92.1%  70.7   17s
H  163    81                       0.0347599    0.00276  92.1%  61.1   18s
H  195    99                       0.0347032    0.00276  92.0%  58.8   20s
H  201    99                       0.0341717    0.00276  91.9%  58.0   21s
*  201    99              11       0.0341717    0.00276  91.9%  58.0   21s
H  233   101                       0.0337193    0.00276  91.8%  55.1   22s
*  233   101              16       0.0337193    0.00276  91.8%  55.1   22s
H  359    10                       0.0337190    0.00276  91.8%  58.1   24s
*  359    10              23       0.0337190    0.00276  91.8%  58.1   24s
   403     0          -   25         0.03372    0.03363  0.27%  56.5   25s
H  411     0                       0.0337106    0.03363  0.25%  55.5   27s
*  411     0              19       0.0337106    0.03363  0.23%  55.5   27s
H  415     0                       0.0336319    0.03363  0.00%  55.0   28s
*  415     0              24       0.0336319    0.03363  0.00%  55.0   28s

Cutting planes:
  Gomory: 2
  Lift-and-project: 16
  Implied bound: 9
  MIR: 2
  Flow cover: 3
  RLT: 4

Explored 417 nodes (41559 simplex iterations) in 28.54 seconds (31.01 work units)
Thread count was 4 (of 128 available processors)

Solution count 10: 0.0336319 0.0337106 0.033719 ... 0.0781316

Optimal solution found (tolerance 1.00e-03)
Best objective 3.363190504468e-02, best bound 3.363190504468e-02, gap 0.0000%
